64294 38211
47577 38634
28543 63896
52156 12746
20823 26895
59346 37090
57084 52896
19490 55397
49964 44121
33357 46268
22521 52940
44143 50932
6799 3015
3502 46702
3719 2791
44889 50719
52911 37909
33322 57103
23495 64023
19079 416
4046 61079
55556 64893
60577 34523
16212 8442
63170 53154
57582 2910
33368 39019
35507 63531
42653 10428
33973 25074
46828 803
18332 34754
50539 37151
51163 37199
47627 56094
55776 35290
33583 23726
51749 33777
34351 27148
54350 3895
65533 30574
57846 7325
30156 16251
37204 60468
22955 52728
25195 54973
37191 16545
35113 16105
8710 50553
62721 52630
4805 26503
15123 6067
10195 10953
46183 10620
44192 49372
41086 57169
27265 38263
45655 26552
16873 54098
24814 47447
24725 17666
33212 24710
11471 23042
22729 28903
33629 7423
36026 9853
18364 62440
13250 59511
60199 52317
55309 56037
37790 47832
12221 38985
60816 25781
26620 47656
